Ac4 Ag4 Au8
1.0
7.354352 0.000000 0.000000
0.000000 7.354352 0.000000
0.000000 0.000000 7.354352
Ac Ag Au
4 4 8
direct
0.500000 0.000000 0.000000 Ac
0.500000 0.500000 0.500000 Ac
0.000000 0.000000 0.500000 Ac
0.000000 0.500000 0.000000 Ac
0.000000 0.000000 0.000000 Ag
0.000000 0.500000 0.500000 Ag
0.500000 0.000000 0.500000 Ag
0.500000 0.500000 0.000000 Ag
0.250000 0.250000 0.750000 Au
0.250000 0.750000 0.750000 Au
0.250000 0.750000 0.250000 Au
0.250000 0.250000 0.250000 Au
0.750000 0.250000 0.250000 Au
0.750000 0.750000 0.250000 Au
0.750000 0.750000 0.750000 Au
0.750000 0.250000 0.750000 Au
