Ag1 As1 C4 S8 N4 F6
1.0
8.723939 0.000000 0.000000
0.000000 8.723939 0.000000
0.000000 0.000000 6.665126
Ag As C S N F
1 1 4 8 4 6
direct
0.000000 0.000000 0.000000 Ag
0.500000 0.500000 0.000000 As
0.728677 0.899215 0.664487 C
0.271323 0.100785 0.664487 C
0.100785 0.728677 0.335513 C
0.899215 0.271323 0.335513 C
0.795432 0.362431 0.510119 S
0.610209 0.968448 0.268875 S
0.362431 0.204568 0.489881 S
0.204568 0.637569 0.510119 S
0.968448 0.389791 0.731125 S
0.637569 0.795432 0.489881 S
0.389791 0.031552 0.268875 S
0.031552 0.610209 0.731125 S
0.798014 0.964516 0.788788 N
0.201986 0.035484 0.788788 N
0.964516 0.201986 0.211212 N
0.035484 0.798014 0.211212 N
0.500000 0.500000 0.732716 F
0.500000 0.500000 0.267284 F
0.600632 0.322913 0.000983 F
0.677087 0.600632 0.999017 F
0.399368 0.677087 0.000983 F
0.322913 0.399368 0.999017 F
